/* Objective function */
max: ;

/* Constraints */
R1: +x3 <= 0;
R2: +x4 <= 1;
0 x1 <= 0;
R4: +x1 <= 0;
R5: +x2 <= 0;
R6: +x1 <= 0;
R7: +x2 <= 0;
R8: +x3 >= 0;
+x1 +x2 >= 0;
R10: +x4 >= 0;
0 x1 >= 1;
R12: +x4 >= 0;
0 x1 >= 1;
R14: +x1 >= 0;
R15: +x2 >= 0;
R16: +x3 >= 0;
R17: +x4 >= 0;
